Route #1: 21 11 28 3 31 24 39 14 23
Route #2: 26 19 15 49 17 22 50 12 45 4
Route #3: 16 9 46 13 34 32 38 48 2
Route #4: 43 7 33 35 51 29
Route #5: 27 8 5 10 44 47 37
Route #6: 40 42 20 30 18 1 41
Route #7: 25 6 36
Cost 761